
        $ From http://www.csplib.org/Problems/prob009/data/helmut.pdf
        $ Problem number 37
        $ Sequence length : 24
        language ESSENCE' 1.0
        letting sizemaster be 304
        letting sizes be sequence(3,5,7,11,12,17,20,22,25,29,35,47,48,55,56,57,69,72,76,92,96,100,116,132)
        